 Code   331
 Dimension, Fixed Cost
   100        3000
 Facility, Client, Transportation Cost
     1        2           4
     1       16           1
     1       19           1
     1       29           3
     1       30           3
     1       37           3
     1       38           3
     1       43           1
     1       61           2
     1       63           0
     2        2           0
     2        9           1
     2       17           4
     2       22           3
     2       33           4
     2       36           2
     2       42           1
     2       49           1
     2       52           2
     2       58           1
     3       12           3
     3       33           4
     3       44           3
     3       46           0
     3       50           4
     3       84           4
     3       86           2
     3       94           3
     3       97           4
     3       98           4
     4       10           0
     4       17           3
     4       40           2
     4       52           4
     4       53           0
     4       70           4
     4       71           2
     4       74           3
     4       77           1
     4       80           1
     5        5           1
     5        8           2
     5       28           4
     5       63           3
     5       72           3
     5       77           0
     5       80           2
     5       81           4
     5       84           1
     5      100           4
     6        4           1
     6       12           3
     6       20           3
     6       29           3
     6       53           3
     6       63           0
     6       65           0
     6       71           3
     6       74           1
     6       84           3
     7        7           1
     7       11           0
     7       38           3
     7       70           2
     7       73           4
     7       80           3
     7       81           2
     7       83           3
     7       90           2
     7       96           0
     8        3           4
     8       11           4
     8       14           1
     8       17           1
     8       40           0
     8       42           0
     8       52           0
     8       61           2
     8       72           2
     8       86           1
     9       13           3
     9       14           4
     9       18           2
     9       24           1
     9       57           0
     9       61           2
     9       64           1
     9       66           4
     9       76           4
     9       96           4
    10       18           4
    10       23           2
    10       31           4
    10       35           1
    10       36           1
    10       43           2
    10       46           2
    10       54           1
    10       80           3
    10       84           0
    11       14           3
    11       16           0
    11       17           3
    11       32           2
    11       33           2
    11       51           3
    11       73           3
    11       75           2
    11       84           2
    11       99           0
    12        5           1
    12       17           2
    12       23           4
    12       56           4
    12       63           3
    12       70           0
    12       74           1
    12       75           2
    12       81           0
    12       88           3
    13       10           0
    13       11           1
    13       18           3
    13       20           3
    13       21           0
    13       45           2
    13       72           2
    13       79           3
    13       86           0
    13       94           3
    14       13           0
    14       17           0
    14       35           4
    14       46           4
    14       49           2
    14       51           2
    14       73           2
    14       75           3
    14       89           1
    14       95           0
    15        3           4
    15        6           0
    15        9           3
    15       29           4
    15       50           0
    15       51           4
    15       57           4
    15       58           2
    15       64           4
    15       67           0
    16        7           2
    16        8           0
    16       18           3
    16       23           3
    16       34           3
    16       45           2
    16       47           0
    16       58           0
    16       89           1
    16       96           3
    17        5           4
    17        8           2
    17       43           0
    17       56           3
    17       82           4
    17       84           0
    17       88           0
    17       89           3
    17       90           0
    17       93           0
    18        5           4
    18        7           3
    18       12           4
    18       31           2
    18       54           2
    18       62           3
    18       67           2
    18       79           2
    18       93           4
    18       97           3
    19        2           4
    19       17           1
    19       31           1
    19       44           2
    19       59           1
    19       62           4
    19       80           0
    19       86           3
    19       91           4
    19       92           3
    20        4           1
    20       15           0
    20       17           0
    20       23           3
    20       24           4
    20       56           3
    20       69           1
    20       84           2
    20       96           3
    20       98           1
    21        2           2
    21        9           0
    21       16           2
    21       25           0
    21       33           0
    21       64           0
    21       67           1
    21       72           4
    21       77           2
    21      100           0
    22        7           2
    22       28           3
    22       32           0
    22       64           4
    22       67           1
    22       68           1
    22       70           2
    22       84           4
    22       88           0
    22       92           3
    23       10           4
    23       14           4
    23       15           2
    23       25           3
    23       34           3
    23       41           4
    23       53           0
    23       59           3
    23       85           1
    23       91           0
    24       11           0
    24       14           1
    24       17           4
    24       22           3
    24       31           1
    24       61           3
    24       69           2
    24       70           0
    24       81           1
    24       94           3
    25        1           0
    25        2           2
    25       20           0
    25       23           1
    25       42           4
    25       51           2
    25       68           1
    25       84           2
    25       87           1
    25       95           1
    26        2           1
    26        5           0
    26        6           2
    26        9           3
    26       37           2
    26       55           1
    26       65           2
    26       73           2
    26       92           0
    26       99           3
    27       38           2
    27       45           0
    27       48           4
    27       53           3
    27       67           4
    27       68           2
    27       77           2
    27       85           0
    27       91           4
    27       96           2
    28       19           1
    28       27           3
    28       28           4
    28       35           3
    28       38           4
    28       47           3
    28       54           0
    28       64           1
    28       86           0
    28       98           4
    29       20           0
    29       26           3
    29       42           0
    29       55           3
    29       62           4
    29       63           3
    29       65           1
    29       73           0
    29       79           3
    29       93           2
    30        2           3
    30        5           0
    30       17           0
    30       26           1
    30       27           0
    30       31           3
    30       36           2
    30       58           1
    30       70           2
    30       95           4
    31       14           4
    31       18           3
    31       20           0
    31       34           1
    31       37           2
    31       50           4
    31       74           3
    31       86           4
    31       95           3
    31       97           1
    32        1           3
    32       19           1
    32       34           3
    32       37           2
    32       42           1
    32       55           3
    32       62           3
    32       87           3
    32       90           2
    32       92           0
    33        7           1
    33        8           0
    33       10           1
    33       13           3
    33       20           0
    33       53           0
    33       54           0
    33       75           1
    33       86           0
    33       87           2
    34        2           4
    34        4           3
    34        5           0
    34       15           1
    34       29           2
    34       55           2
    34       64           1
    34       90           4
    34       92           4
    34       95           3
    35        1           3
    35       10           4
    35       13           4
    35       46           0
    35       50           3
    35       53           4
    35       61           1
    35       73           4
    35       77           4
    35       86           0
    36       35           3
    36       45           0
    36       51           4
    36       54           4
    36       59           3
    36       63           1
    36       70           3
    36       72           4
    36       85           1
    36       91           0
    37        6           1
    37       41           0
    37       47           1
    37       59           4
    37       62           1
    37       65           3
    37       73           2
    37       78           1
    37       94           1
    37       97           3
    38       16           1
    38       31           0
    38       32           0
    38       34           2
    38       37           3
    38       81           4
    38       83           4
    38       85           1
    38       92           1
    38       94           3
    39        4           4
    39        5           3
    39       11           3
    39       21           1
    39       58           3
    39       67           1
    39       76           4
    39       86           0
    39       89           2
    39       94           1
    40        6           4
    40        8           1
    40       19           4
    40       33           1
    40       44           0
    40       69           3
    40       78           4
    40       97           2
    40       98           3
    40      100           2
    41       12           1
    41       13           2
    41       25           1
    41       46           4
    41       49           3
    41       53           1
    41       54           2
    41       81           1
    41       82           3
    41       84           0
    42        6           2
    42        8           0
    42       20           2
    42       21           2
    42       23           2
    42       32           4
    42       56           2
    42       87           2
    42       91           1
    42      100           3
    43        1           2
    43       37           0
    43       45           2
    43       48           3
    43       50           3
    43       52           0
    43       69           3
    43       73           1
    43       79           0
    43       95           0
    44        5           3
    44        9           2
    44       11           0
    44       22           3
    44       30           0
    44       66           0
    44       76           3
    44       84           0
    44       93           4
    44      100           2
    45        4           1
    45        5           2
    45       17           3
    45       30           4
    45       38           3
    45       41           4
    45       50           2
    45       68           3
    45       83           1
    45       89           4
    46        2           3
    46       19           0
    46       20           3
    46       32           1
    46       35           1
    46       44           4
    46       63           3
    46       70           4
    46       79           2
    46       93           1
    47        7           3
    47       18           4
    47       26           0
    47       30           1
    47       52           2
    47       56           0
    47       61           0
    47       62           2
    47       77           2
    47       87           0
    48        6           1
    48       31           1
    48       32           3
    48       41           2
    48       53           3
    48       66           1
    48       85           0
    48       89           0
    48       94           0
    48      100           2
    49        1           2
    49       37           3
    49       50           3
    49       59           0
    49       60           1
    49       64           4
    49       78           4
    49       92           2
    49       97           4
    49       99           3
    50       13           4
    50       23           1
    50       32           3
    50       37           2
    50       41           1
    50       57           0
    50       82           3
    50       85           1
    50       87           2
    50       91           0
    51        6           4
    51       13           2
    51       21           0
    51       47           3
    51       48           0
    51       72           1
    51       75           0
    51       84           1
    51       94           0
    51       99           4
    52        2           0
    52        6           2
    52       23           0
    52       38           3
    52       40           2
    52       42           4
    52       65           3
    52       72           4
    52       78           4
    52       84           1
    53       19           1
    53       28           2
    53       34           3
    53       46           3
    53       54           4
    53       59           0
    53       66           3
    53       78           4
    53       91           0
    53       93           2
    54        5           1
    54       10           0
    54       15           0
    54       19           4
    54       21           0
    54       52           3
    54       64           3
    54       73           1
    54       79           4
    54       98           1
    55       12           2
    55       21           1
    55       51           4
    55       52           4
    55       57           3
    55       62           1
    55       66           2
    55       71           3
    55       84           2
    55       94           2
    56        4           2
    56        7           2
    56        8           0
    56       11           2
    56       14           2
    56       32           1
    56       76           3
    56       79           3
    56       84           1
    56       95           3
    57        8           1
    57       14           1
    57       16           4
    57       26           3
    57       29           1
    57       34           1
    57       42           1
    57       55           0
    57       58           1
    57       77           3
    58        7           0
    58       18           2
    58       24           0
    58       32           1
    58       47           1
    58       52           0
    58       56           0
    58       59           0
    58       79           2
    58       88           2
    59        7           4
    59       10           1
    59       23           4
    59       27           0
    59       31           4
    59       49           1
    59       65           4
    59       68           0
    59       80           1
    59       96           0
    60        4           2
    60        9           3
    60       12           4
    60       34           1
    60       66           3
    60       72           4
    60       73           4
    60       84           4
    60       92           3
    60       93           3
    61        9           1
    61       21           4
    61       39           4
    61       60           1
    61       65           4
    61       84           2
    61       86           1
    61       89           4
    61       94           4
    61       95           0
    62        4           3
    62        5           3
    62       28           2
    62       57           2
    62       58           1
    62       60           2
    62       66           1
    62       75           4
    62       80           4
    62       96           3
    63        8           3
    63       18           4
    63       35           3
    63       46           1
    63       48           0
    63       53           2
    63       55           0
    63       62           2
    63       87           2
    63       89           0
    64        2           0
    64       12           3
    64       21           1
    64       34           1
    64       46           1
    64       64           4
    64       76           3
    64       82           3
    64       83           1
    64       86           0
    65        3           2
    65       15           2
    65       19           4
    65       27           1
    65       33           1
    65       58           3
    65       70           4
    65       72           1
    65       76           1
    65       81           0
    66        8           0
    66       16           3
    66       19           4
    66       20           0
    66       23           4
    66       55           0
    66       60           4
    66       83           0
    66       92           3
    66       94           0
    67        1           1
    67        8           4
    67       10           4
    67       23           3
    67       27           2
    67       36           2
    67       39           4
    67       40           3
    67       61           0
    67       94           3
    68        7           0
    68       11           1
    68       20           0
    68       35           4
    68       37           4
    68       66           1
    68       67           3
    68       78           3
    68       83           0
    68       87           2
    69        5           4
    69       26           2
    69       29           3
    69       32           0
    69       46           0
    69       57           2
    69       67           1
    69       78           4
    69       83           1
    69       90           3
    70       10           3
    70       21           4
    70       30           2
    70       35           2
    70       43           4
    70       45           1
    70       53           3
    70       69           4
    70       92           4
    70       93           4
    71       12           3
    71       17           0
    71       29           2
    71       31           3
    71       43           0
    71       59           0
    71       66           3
    71       83           4
    71       85           3
    71       99           4
    72        2           4
    72        7           3
    72       12           4
    72       22           0
    72       34           2
    72       40           2
    72       63           1
    72       70           2
    72       83           0
    72       94           4
    73        6           0
    73       13           1
    73       23           3
    73       27           3
    73       32           3
    73       33           4
    73       38           1
    73       49           1
    73       54           0
    73       69           2
    74        3           3
    74       10           2
    74       23           3
    74       24           3
    74       43           4
    74       45           3
    74       55           4
    74       84           4
    74       89           4
    74       91           4
    75        5           3
    75        6           4
    75       16           4
    75       17           4
    75       22           3
    75       48           1
    75       70           1
    75       89           0
    75       91           4
    75       97           3
    76       15           1
    76       20           2
    76       42           1
    76       43           0
    76       47           2
    76       48           3
    76       74           2
    76       78           0
    76       91           4
    76       98           1
    77        2           2
    77       10           3
    77       34           3
    77       42           2
    77       48           2
    77       57           2
    77       58           2
    77       73           2
    77       88           1
    77      100           3
    78        4           4
    78        9           2
    78       26           3
    78       31           4
    78       43           0
    78       53           3
    78       65           1
    78       68           4
    78       73           2
    78       97           0
    79       16           0
    79       29           0
    79       39           1
    79       42           4
    79       44           1
    79       53           0
    79       55           1
    79       94           3
    79       97           3
    79       98           0
    80        3           2
    80       10           4
    80       20           0
    80       32           1
    80       33           1
    80       53           2
    80       62           4
    80       65           4
    80       66           1
    80       75           3
    81        8           0
    81        9           3
    81       19           3
    81       21           4
    81       35           3
    81       37           1
    81       57           0
    81       59           4
    81       71           1
    81       91           4
    82        7           2
    82        9           1
    82       12           4
    82       17           0
    82       19           3
    82       37           0
    82       43           3
    82       75           4
    82       96           4
    82      100           2
    83       11           0
    83       13           2
    83       16           3
    83       28           0
    83       68           1
    83       79           0
    83       82           4
    83       92           1
    83       96           2
    83      100           2
    84        2           4
    84       14           3
    84       32           3
    84       34           2
    84       36           0
    84       44           2
    84       45           3
    84       55           4
    84       65           4
    84       74           1
    85        2           4
    85       36           1
    85       54           1
    85       57           0
    85       61           4
    85       76           0
    85       79           3
    85       82           3
    85       92           0
    85       99           1
    86        8           0
    86       12           1
    86       16           4
    86       22           2
    86       43           0
    86       52           3
    86       62           0
    86       69           4
    86       82           0
    86       98           3
    87        9           0
    87       18           2
    87       19           1
    87       41           4
    87       42           2
    87       62           3
    87       68           0
    87       77           3
    87       90           0
    87       97           1
    88       16           3
    88       21           1
    88       29           3
    88       45           1
    88       71           0
    88       88           1
    88       93           4
    88       94           0
    88       98           1
    88      100           0
    89       10           1
    89       29           3
    89       31           4
    89       35           4
    89       39           3
    89       58           1
    89       82           0
    89       94           2
    89       95           1
    89       96           4
    90        1           4
    90        6           3
    90        8           1
    90       38           0
    90       39           0
    90       44           1
    90       47           3
    90       81           3
    90       90           0
    90      100           2
    91        4           3
    91       13           2
    91       17           3
    91       43           1
    91       49           0
    91       50           1
    91       60           1
    91       66           1
    91       81           4
    91      100           0
    92        3           4
    92        7           3
    92       12           2
    92       14           0
    92       28           2
    92       30           0
    92       37           1
    92       57           3
    92       60           4
    92       85           2
    93        6           2
    93        8           0
    93       10           4
    93       46           4
    93       61           2
    93       64           1
    93       86           4
    93       92           3
    93       93           3
    93       98           2
    94        1           2
    94       27           4
    94       33           4
    94       62           3
    94       72           2
    94       74           3
    94       75           2
    94       81           4
    94       84           0
    94       99           2
    95       11           0
    95       12           2
    95       18           2
    95       24           4
    95       29           3
    95       33           2
    95       49           4
    95       51           4
    95       64           3
    95       80           1
    96       13           2
    96       14           3
    96       19           1
    96       27           3
    96       39           2
    96       44           4
    96       77           2
    96       83           4
    96       86           3
    96       94           3
    97        3           4
    97       11           3
    97       27           4
    97       35           3
    97       64           3
    97       65           1
    97       76           4
    97       81           4
    97       83           3
    97      100           0
    98       18           1
    98       26           1
    98       31           1
    98       46           3
    98       61           4
    98       72           2
    98       78           4
    98       92           3
    98       96           0
    98       97           4
    99       31           4
    99       35           1
    99       36           0
    99       38           2
    99       46           1
    99       48           2
    99       73           3
    99       76           1
    99       89           2
    99       91           4
   100        6           0
   100       25           3
   100       34           4
   100       55           3
   100       66           1
   100       71           3
   100       83           4
   100       91           2
   100       93           4
   100      100           2
